
Gurobi 6.5.2 (win64) logging started 07/22/16 21:28:36


Gurobi 6.5.2 (win64) logging started 07/22/16 21:28:36

Optimize a model with 1693 rows, 242 columns and 3566 nonzeros
Coefficient statistics:
  Matrix range    [1e+00, 1e+00]
  Objective range [2e+00, 3e+02]
  Bounds range    [1e+00, 1e+00]
  RHS range       [1e+00, 1e+00]
Found heuristic solution: objective -0
Presolve removed 1581 rows and 30 columns
Presolve time: 0.00s
Presolved: 112 rows, 212 columns, 716 nonzeros
Variable types: 0 continuous, 212 integer (212 binary)

Root relaxation: objective 1.579000e+03, 104 iterations, 0.00 seconds

    Nodes    |    Current Node    |     Objective Bounds      |     Work
 Expl Unexpl |  Obj  Depth IntInf | Incumbent    BestBd   Gap | It/Node Time

*    0     0               0    1579.0000000 1579.00000  0.00%     -    0s

Explored 0 nodes (104 simplex iterations) in 0.00 seconds
Thread count was 8 (of 8 available processors)

Optimal solution found (tolerance 1.00e-04)
Best objective 1.579000000000e+03, best bound 1.579000000000e+03, gap 0.0%

Wrote requested result file 'H1\instance14\\Results14.lp'

